NAME: cuum410.tsp
TYPE: TSP
COMMENT: User-generated TSP file
DIMENSION: 410
EDGE_WEIGHT_TYPE: EUC_2D
NODE_COORD_SECTION
1 56.0 213.0
2 327.0 228.0
3 392.0 63.0
4 288.0 361.0
5 319.0 345.0
6 161.0 340.0
7 241.0 319.0
8 232.0 173.0
9 149.0 206.0
10 58.0 347.0
11 45.0 96.0
12 263.0 51.0
13 343.0 272.0
14 251.0 153.0
15 68.0 300.0
16 395.0 196.0
17 194.0 334.0
18 105.0 375.0
19 79.0 326.0
20 69.0 309.0
21 157.0 343.0
22 49.0 157.0
23 86.0 222.0
24 44.0 127.0
25 240.0 329.0
26 244.0 215.0
27 250.0 156.0
28 16.0 88.0
29 268.0 45.0
30 119.0 292.0
31 5.0 341.0
32 146.0 301.0
33 244.0 59.0
34 318.0 77.0
35 332.0 185.0
36 178.0 211.0
37 201.0 181.0
38 236.0 214.0
39 344.0 121.0
40 403.0 172.0
41 106.0 230.0
42 40.0 5.0
43 362.0 74.0
44 89.0 319.0
45 261.0 188.0
46 142.0 137.0
47 331.0 77.0
48 338.0 282.0
49 365.0 182.0
50 137.0 88.0
51 362.0 287.0
52 263.0 262.0
53 86.0 337.0
54 323.0 385.0
55 283.0 405.0
56 272.0 60.0
57 362.0 171.0
58 150.0 57.0
59 184.0 225.0
60 9.0 154.0
61 53.0 388.0
62 47.0 14.0
63 82.0 7.0
64 67.0 192.0
65 121.0 97.0
66 224.0 26.0
67 256.0 177.0
68 286.0 398.0
69 325.0 70.0
70 334.0 147.0
71 285.0 115.0
72 238.0 372.0
73 401.0 85.0
74 340.0 317.0
75 323.0 127.0
76 221.0 39.0
77 340.0 184.0
78 87.0 190.0
79 184.0 311.0
80 13.0 78.0
81 341.0 264.0
82 135.0 255.0
83 127.0 73.0
84 122.0 273.0
85 11.0 380.0
86 241.0 24.0
87 231.0 369.0
88 86.0 296.0
89 190.0 316.0
90 93.0 106.0
91 194.0 229.0
92 261.0 198.0
93 171.0 327.0
94 20.0 3.0
95 223.0 298.0
96 343.0 44.0
97 86.0 80.0
98 192.0 49.0
99 22.0 87.0
100 336.0 136.0
101 284.0 105.0
102 174.0 76.0
103 173.0 257.0
104 402.0 65.0
105 243.0 30.0
106 272.0 355.0
107 347.0 140.0
108 46.0 367.0
109 197.0 245.0
110 161.0 409.0
111 62.0 217.0
112 10.0 340.0
113 116.0 247.0
114 156.0 370.0
115 107.0 343.0
116 124.0 272.0
117 389.0 228.0
118 241.0 10.0
119 371.0 358.0
120 260.0 314.0
121 185.0 302.0
122 47.0 165.0
123 174.0 304.0
124 164.0 125.0
125 279.0 28.0
126 246.0 369.0
127 98.0 355.0
128 49.0 32.0
129 379.0 193.0
130 382.0 292.0
131 342.0 162.0
132 86.0 262.0
133 201.0 220.0
134 97.0 78.0
135 173.0 236.0
136 53.0 35.0
137 402.0 228.0
138 132.0 56.0
139 301.0 83.0
140 365.0 287.0
141 68.0 406.0
142 383.0 367.0
143 256.0 172.0
144 406.0 149.0
145 172.0 134.0
146 278.0 127.0
147 132.0 260.0
148 115.0 81.0
149 385.0 208.0
150 33.0 70.0
151 226.0 145.0
152 54.0 126.0
153 89.0 407.0
154 366.0 251.0
155 225.0 239.0
156 178.0 230.0
157 270.0 154.0
158 19.0 255.0
159 346.0 115.0
160 59.0 259.0
161 258.0 8.0
162 279.0 35.0
163 387.0 339.0
164 139.0 397.0
165 110.0 86.0
166 389.0 6.0
167 312.0 309.0
168 196.0 272.0
169 17.0 366.0
170 216.0 131.0
171 77.0 70.0
172 126.0 223.0
173 319.0 25.0
174 115.0 66.0
175 154.0 337.0
176 163.0 307.0
177 94.0 63.0
178 235.0 173.0
179 96.0 257.0
180 285.0 25.0
181 316.0 162.0
182 35.0 302.0
183 212.0 92.0
184 309.0 211.0
185 249.0 345.0
186 178.0 53.0
187 323.0 158.0
188 174.0 293.0
189 124.0 326.0
190 269.0 257.0
191 78.0 388.0
192 376.0 238.0
193 408.0 182.0
194 190.0 261.0
195 238.0 212.0
196 144.0 34.0
197 170.0 168.0
198 75.0 332.0
199 133.0 337.0
200 254.0 174.0
201 40.0 100.0
202 396.0 177.0
203 351.0 264.0
204 3.0 72.0
205 332.0 257.0
206 255.0 265.0
207 160.0 148.0
208 384.0 297.0
209 50.0 324.0
210 34.0 211.0
211 319.0 130.0
212 263.0 150.0
213 218.0 400.0
214 56.0 83.0
215 406.0 29.0
216 244.0 100.0
217 364.0 189.0
218 228.0 317.0
219 392.0 58.0
220 173.0 78.0
221 124.0 338.0
222 160.0 396.0
223 343.0 12.0
224 300.0 362.0
225 57.0 319.0
226 10.0 61.0
227 284.0 386.0
228 105.0 81.0
229 140.0 102.0
230 135.0 160.0
231 147.0 43.0
232 175.0 148.0
233 8.0 8.0
234 219.0 404.0
235 117.0 86.0
236 190.0 77.0
237 4.0 235.0
238 67.0 358.0
239 39.0 81.0
240 273.0 62.0
241 126.0 45.0
242 287.0 32.0
243 158.0 195.0
244 169.0 304.0
245 67.0 186.0
246 11.0 221.0
247 215.0 348.0
248 169.0 382.0
249 107.0 373.0
250 166.0 112.0
251 251.0 371.0
252 134.0 44.0
253 37.0 6.0
254 274.0 125.0
255 194.0 35.0
256 148.0 182.0
257 381.0 225.0
258 29.0 382.0
259 126.0 130.0
260 198.0 378.0
261 364.0 274.0
262 392.0 291.0
263 347.0 91.0
264 191.0 282.0
265 40.0 264.0
266 174.0 236.0
267 223.0 105.0
268 51.0 153.0
269 257.0 314.0
270 331.0 75.0
271 106.0 329.0
272 235.0 396.0
273 287.0 400.0
274 279.0 328.0
275 384.0 198.0
276 37.0 314.0
277 128.0 58.0
278 71.0 388.0
279 377.0 402.0
280 298.0 325.0
281 89.0 60.0
282 291.0 275.0
283 189.0 173.0
284 368.0 85.0
285 382.0 144.0
286 236.0 52.0
287 299.0 173.0
288 316.0 136.0
289 236.0 150.0
290 155.0 218.0
291 240.0 303.0
292 283.0 203.0
293 2.0 109.0
294 273.0 407.0
295 31.0 385.0
296 13.0 178.0
297 106.0 18.0
298 90.0 269.0
299 329.0 18.0
300 106.0 94.0
301 115.0 265.0
302 144.0 79.0
303 225.0 224.0
304 80.0 151.0
305 334.0 42.0
306 231.0 270.0
307 288.0 156.0
308 184.0 281.0
309 170.0 267.0
310 87.0 344.0
311 214.0 382.0
312 236.0 78.0
313 208.0 126.0
314 132.0 58.0
315 379.0 118.0
316 217.0 271.0
317 1.0 302.0
318 294.0 212.0
319 5.0 349.0
320 355.0 201.0
321 72.0 47.0
322 99.0 405.0
323 268.0 359.0
324 210.0 178.0
325 279.0 117.0
326 106.0 124.0
327 213.0 236.0
328 265.0 62.0
329 248.0 278.0
330 87.0 69.0
331 335.0 301.0
332 13.0 115.0
333 29.0 94.0
334 167.0 399.0
335 121.0 14.0
336 251.0 309.0
337 224.0 27.0
338 127.0 329.0
339 111.0 18.0
340 271.0 217.0
341 4.0 326.0
342 39.0 305.0
343 26.0 9.0
344 162.0 308.0
345 119.0 113.0
346 219.0 215.0
347 349.0 149.0
348 215.0 54.0
349 120.0 248.0
350 62.0 117.0
351 103.0 289.0
352 402.0 388.0
353 134.0 41.0
354 392.0 258.0
355 370.0 376.0
356 51.0 311.0
357 305.0 396.0
358 257.0 174.0
359 330.0 83.0
360 260.0 10.0
361 133.0 311.0
362 376.0 213.0
363 368.0 273.0
364 6.0 121.0
365 233.0 367.0
366 217.0 135.0
367 135.0 262.0
368 230.0 148.0
369 115.0 306.0
370 179.0 181.0
371 363.0 280.0
372 368.0 213.0
373 110.0 208.0
374 409.0 343.0
375 341.0 330.0
376 232.0 349.0
377 118.0 117.0
378 303.0 326.0
379 268.0 138.0
380 243.0 151.0
381 344.0 173.0
382 36.0 176.0
383 122.0 74.0
384 402.0 174.0
385 273.0 112.0
386 257.0 11.0
387 71.0 47.0
388 336.0 379.0
389 37.0 164.0
390 375.0 182.0
391 373.0 77.0
392 9.0 316.0
393 316.0 164.0
394 78.0 400.0
395 306.0 40.0
396 294.0 127.0
397 161.0 204.0
398 21.0 266.0
399 226.0 314.0
400 316.0 194.0
401 247.0 223.0
402 184.0 233.0
403 289.0 234.0
404 210.0 271.0
405 213.0 6.0
406 327.0 381.0
407 147.0 165.0
408 362.0 124.0
409 252.0 17.0
410 257.0 144.0
EOF





